set A := 1 2 3 4 5 6 7;
set B := 1 2 3 4 5;


param UPA := 
1  225
2  220
3  124
4  115
5   60
6   56
7   51;


param UPB := 
1  224
2  214
3  120
4   54
5   52;


param XL := 
1     0
2   251
3     0
4   601
5     0
6  1001
7  2001;

param XU := 
1   250
2   500
3   600
4  1000
5  1000
6  2000
7  2500;


param YL := 
1     0
2   301
3     0
4     0
5  1501;

param YU := 
1   300
2   500
3  1000
4  1500
5  2500;




